Maximize
F - f1 - f2

Subject to
F - 30y40 - 20y166 - 20y97 - 20y207 - 10y93 - 20y190 - 40y186 - 20y155 - 10y47 - 20y126 - 30y78 - 30y117 - 10y100 - 40y143 - 10y74 - 10y164 - 30y44 - 30y81 - 10y172 - 40y41 - 30y104 - 40y191 - 20y21 - 30y14 - 40y139 - 30y3 - 40y75 - 20y179 - 20y13 - 10y188 - 10y161 - 40y89 - 20y4 - 30y57 - 30y183 - 30y111 - 40y122 - 10y24 - 40y136 - 20y27 - 20y31 = 0
f1 - 0.004174s40 - 0.004174s166 - 0.004174s97 - 0.004174s207 - 0.004174s93 - 0.004174s190 - 0.004174s186 - 0.004174s155 - 0.004174s47 - 0.004174s126 - 0.004174s78 - 0.004174s117 - 0.004174s100 - 0.004174s143 - 0.004174s74 - 0.004174s164 - 0.004174s44 - 0.004174s81 - 0.004174s172 - 0.004174s41 - 0.004174s104 - 0.004174s191 - 0.004174s21 - 0.004174s14 - 0.004174s139 - 0.004174s3 - 0.004174s75 - 0.004174s179 - 0.004174s13 - 0.004174s188 - 0.004174s161 - 0.004174s89 - 0.004174s4 - 0.004174s57 - 0.004174s183 - 0.004174s111 - 0.004174s122 - 0.004174s24 - 0.004174s136 - 0.004174s27 - 0.004174s31  = 0
f2 - 1.48y40 - 4.52y166 - 4.48y97 - 1.46y207 - 1.39y93 - 1.34y190 - 2.57y186 - 3.31y155 - 0.41y47 - 1.69y126 - 1.75y78 - 0.24y117 - 1.61y100 - 2.74y143 - 1.52y74 - 1.33y164 - 2.56y44 - 1.28y81 - 2.47y172 - 2.48y41 - 1.20y104 - 1.08y191 - 2.33y21 - 2.26y14 - 0.94y139 - 0.97y3 - 0.01y75 - 0.94y179 - 2.16y13 - 0.53y188 - 2.14y161 - 0.46y89 - 0.31y4 - 1.44y57 - 0.62y183 - 1.34y111 - 0.21y122 - 0.79y24 - 1.31y136 - 1.38y27 - 0.03y31 = 0

x60x97x1 + x60x155x1 + x60x117x1 + x60x143x1 + x60x44x1 + x60x14x1 + x60x3x1 + x60x161x1 + x60x4x1 + x60x183x1 + x60x122x1 + x60x136x1 + x60x31x1 
<= 2
x116x75x3 
<= 2

- x40x93x1 - x40x155x1 - x40x117x1 - x40x143x1 - x40x74x1 - x40x44x1 - x40x14x1 - x40x3x1 - x40x161x1 - x40x4x1 - x40x183x1 - x40x122x1 - x40x136x1 - x40x31x1 
= 0

- x40x93x2 - x40x155x2 - x40x47x2 - x40x126x2 - x40x117x2 - x40x164x2 - x40x44x2 - x40x172x2 - x40x41x2 - x40x191x2 - x40x14x2 - x40x139x2 - x40x75x2 - x40x89x2 - x40x4x2 - x40x57x2 - x40x111x2 
= 0





- x166x172x3 - x166x41x3 - x166x191x3 - x166x21x3 - x166x139x3 - x166x13x3 - x166x111x3 - x166x136x3 - x166x27x3 
= 0

x60x97x1 
- x97x0x1
- x97x155x1 - x97x143x1 - x97x44x1 - x97x14x1 - x97x161x1 - x97x136x1 
= 0





- x207x47x2 - x207x117x2 - x207x139x2 - x207x75x2 - x207x89x2 - x207x4x2 
= 0

- x207x139x3 - x207x75x3 - x207x188x3 - x207x89x3 - x207x24x3 - x207x31x3 
= 0

x40x93x1 
- x93x0x1
- x93x155x1 - x93x117x1 - x93x143x1 - x93x44x1 - x93x14x1 - x93x3x1 - x93x161x1 - x93x4x1 - x93x183x1 - x93x122x1 - x93x136x1 - x93x31x1 
= 0
x40x93x2 
- x93x0x2
- x93x155x2 - x93x47x2 - x93x126x2 - x93x117x2 - x93x164x2 - x93x44x2 - x93x172x2 - x93x41x2 - x93x191x2 - x93x14x2 - x93x139x2 - x93x75x2 - x93x89x2 - x93x4x2 - x93x57x2 - x93x111x2 
= 0





- x190x126x3 - x190x81x3 - x190x172x3 - x190x41x3 - x190x104x3 - x190x191x3 - x190x21x3 - x190x139x3 - x190x75x3 - x190x179x3 - x190x13x3 - x190x188x3 - x190x89x3 - x190x111x3 - x190x24x3 - x190x136x3 - x190x27x3 - x190x31x3 
= 0


- x186x155x1 - x186x117x1 - x186x143x1 - x186x44x1 - x186x14x1 - x186x3x1 - x186x161x1 - x186x4x1 - x186x122x1 - x186x136x1 - x186x31x1 
= 0

- x186x155x2 - x186x47x2 - x186x117x2 - x186x164x2 - x186x44x2 - x186x172x2 - x186x41x2 - x186x191x2 - x186x14x2 - x186x139x2 - x186x75x2 - x186x89x2 - x186x4x2 - x186x57x2 - x186x111x2 
= 0


x60x155x1 + x40x155x1 + x97x155x1 + x93x155x1 + x186x155x1 
- x155x0x1
- x155x143x1 
= 0
x40x155x2 + x93x155x2 + x186x155x2 
- x155x0x2
- x155x41x2 
= 0



x40x47x2 + x207x47x2 + x93x47x2 + x186x47x2 
- x47x0x2

= 0



x40x126x2 + x93x126x2 
- x126x0x2

= 0
x190x126x3 
- x126x0x3

= 0





x60x117x1 + x40x117x1 + x93x117x1 + x186x117x1 
- x117x0x1

= 0
x40x117x2 + x207x117x2 + x93x117x2 + x186x117x2 
- x117x0x2

= 0






x60x143x1 + x40x143x1 + x97x143x1 + x93x143x1 + x186x143x1 + x155x143x1 
- x143x0x1

= 0



x40x74x1 
- x74x0x1

= 0




x40x164x2 + x93x164x2 + x186x164x2 
- x164x0x2

= 0


x60x44x1 + x40x44x1 + x97x44x1 + x93x44x1 + x186x44x1 
- x44x0x1

= 0
x40x44x2 + x93x44x2 + x186x44x2 
- x44x0x2

= 0




x190x81x3 
- x81x0x3

= 0


x40x172x2 + x93x172x2 + x186x172x2 
- x172x0x2

= 0
x166x172x3 + x190x172x3 
- x172x0x3

= 0


x40x41x2 + x93x41x2 + x186x41x2 + x155x41x2 
- x41x0x2

= 0
x166x41x3 + x190x41x3 
- x41x0x3

= 0



x190x104x3 
- x104x0x3

= 0


x40x191x2 + x93x191x2 + x186x191x2 
- x191x0x2

= 0
x166x191x3 + x190x191x3 
- x191x0x3

= 0



x166x21x3 + x190x21x3 
- x21x0x3

= 0

x60x14x1 + x40x14x1 + x97x14x1 + x93x14x1 + x186x14x1 
- x14x0x1

= 0
x40x14x2 + x93x14x2 + x186x14x2 
- x14x0x2

= 0



x40x139x2 + x207x139x2 + x93x139x2 + x186x139x2 
- x139x0x2

= 0
x166x139x3 + x207x139x3 + x190x139x3 
- x139x0x3

= 0

x60x3x1 + x40x3x1 + x93x3x1 + x186x3x1 
- x3x0x1

= 0




x40x75x2 + x207x75x2 + x93x75x2 + x186x75x2 
- x75x0x2

= 0
x116x75x3 + x207x75x3 + x190x75x3 
- x75x0x3

= 0



x190x179x3 
- x179x0x3

= 0



x166x13x3 + x190x13x3 
- x13x0x3

= 0



x207x188x3 + x190x188x3 
- x188x0x3

= 0

x60x161x1 + x40x161x1 + x97x161x1 + x93x161x1 + x186x161x1 
- x161x0x1

= 0




x40x89x2 + x207x89x2 + x93x89x2 + x186x89x2 
- x89x0x2

= 0
x207x89x3 + x190x89x3 
- x89x0x3

= 0

x60x4x1 + x40x4x1 + x93x4x1 + x186x4x1 
- x4x0x1

= 0
x40x4x2 + x207x4x2 + x93x4x2 + x186x4x2 
- x4x0x2

= 0



x40x57x2 + x93x57x2 + x186x57x2 
- x57x0x2

= 0


x60x183x1 + x40x183x1 + x93x183x1 
- x183x0x1

= 0




x40x111x2 + x93x111x2 + x186x111x2 
- x111x0x2

= 0
x166x111x3 + x190x111x3 
- x111x0x3

= 0

x60x122x1 + x40x122x1 + x93x122x1 + x186x122x1 
- x122x0x1

= 0





x207x24x3 + x190x24x3 
- x24x0x3

= 0

x60x136x1 + x40x136x1 + x97x136x1 + x93x136x1 + x186x136x1 
- x136x0x1

= 0

x166x136x3 + x190x136x3 
- x136x0x3

= 0



x166x27x3 + x190x27x3 
- x27x0x3

= 0

x60x31x1 + x40x31x1 + x93x31x1 + x186x31x1 
- x31x0x1

= 0

x207x31x3 + x190x31x3 
- x31x0x3

= 0

1y40 = 0
1y40 = 0
2y166 = 0
2y97 - x60x97x1 = 0
1y207 = 0
1y207 = 0
1y93 - x40x93x1 = 0
1y93 - x40x93x2 = 0
2y190 = 0
1y186 = 0
1y186 = 0
1y155 - x60x155x1 - x40x155x1 - x97x155x1 - x93x155x1 - x186x155x1 = 0
1y155 - x40x155x2 - x93x155x2 - x186x155x2 = 0
2y47 - x40x47x2 - x207x47x2 - x93x47x2 - x186x47x2 = 0
1y126 - x40x126x2 - x93x126x2 = 0
1y126 - x190x126x3 = 0
2y78 = 0
1y117 - x60x117x1 - x40x117x1 - x93x117x1 - x186x117x1 = 0
1y117 - x40x117x2 - x207x117x2 - x93x117x2 - x186x117x2 = 0
1y100 = 0
1y100 = 0
2y143 - x60x143x1 - x40x143x1 - x97x143x1 - x93x143x1 - x186x143x1 - x155x143x1 = 0
1y74 - x40x74x1 = 0
1y74 = 0
2y164 - x40x164x2 - x93x164x2 - x186x164x2 = 0
1y44 - x60x44x1 - x40x44x1 - x97x44x1 - x93x44x1 - x186x44x1 = 0
1y44 - x40x44x2 - x93x44x2 - x186x44x2 = 0
2y81 - x190x81x3 = 0
1y172 - x40x172x2 - x93x172x2 - x186x172x2 = 0
1y172 - x166x172x3 - x190x172x3 = 0
1y41 - x40x41x2 - x93x41x2 - x186x41x2 - x155x41x2 = 0
1y41 - x166x41x3 - x190x41x3 = 0
2y104 - x190x104x3 = 0
1y191 - x40x191x2 - x93x191x2 - x186x191x2 = 0
1y191 - x166x191x3 - x190x191x3 = 0
2y21 - x166x21x3 - x190x21x3 = 0
1y14 - x60x14x1 - x40x14x1 - x97x14x1 - x93x14x1 - x186x14x1 = 0
1y14 - x40x14x2 - x93x14x2 - x186x14x2 = 0
1y139 - x40x139x2 - x207x139x2 - x93x139x2 - x186x139x2 = 0
1y139 - x166x139x3 - x207x139x3 - x190x139x3 = 0
2y3 - x60x3x1 - x40x3x1 - x93x3x1 - x186x3x1 = 0
1y75 - x40x75x2 - x207x75x2 - x93x75x2 - x186x75x2 = 0
1y75 - x116x75x3 - x207x75x3 - x190x75x3 = 0
2y179 - x190x179x3 = 0
2y13 - x166x13x3 - x190x13x3 = 0
2y188 - x207x188x3 - x190x188x3 = 0
2y161 - x60x161x1 - x40x161x1 - x97x161x1 - x93x161x1 - x186x161x1 = 0
1y89 - x40x89x2 - x207x89x2 - x93x89x2 - x186x89x2 = 0
1y89 - x207x89x3 - x190x89x3 = 0
1y4 - x60x4x1 - x40x4x1 - x93x4x1 - x186x4x1 = 0
1y4 - x40x4x2 - x207x4x2 - x93x4x2 - x186x4x2 = 0
2y57 - x40x57x2 - x93x57x2 - x186x57x2 = 0
2y183 - x60x183x1 - x40x183x1 - x93x183x1 = 0
1y111 - x40x111x2 - x93x111x2 - x186x111x2 = 0
1y111 - x166x111x3 - x190x111x3 = 0
2y122 - x60x122x1 - x40x122x1 - x93x122x1 - x186x122x1 = 0
2y24 - x207x24x3 - x190x24x3 = 0
1y136 - x60x136x1 - x40x136x1 - x97x136x1 - x93x136x1 - x186x136x1 = 0
1y136 - x166x136x3 - x190x136x3 = 0
2y27 - x166x27x3 - x190x27x3 = 0
1y31 - x60x31x1 - x40x31x1 - x93x31x1 - x186x31x1 = 0
1y31 - x207x31x3 - x190x31x3 = 0

s60 - s97 + 5.433093z60z97z1 <= 3.99
s60 - s155 + 5.549286z60z155z1 <= 3.99
s60 - s117 + 5.876225z60z117z1 <= 3.99
s60 - s143 + 5.643371z60z143z1 <= 3.99
s60 - s44 + 5.662008z60z44z1 <= 3.99
s60 - s14 + 5.716020z60z14z1 <= 3.99
s60 - s3 + 5.827522z60z3z1 <= 3.99
s60 - s161 + 5.793536z60z161z1 <= 3.99
s60 - s4 + 5.943918z60z4z1 <= 3.99
s60 - s183 + 5.970601z60z183z1 <= 3.99
s60 - s122 + 5.928081z60z122z1 <= 3.99
s60 - s136 + 5.841281z60z136z1 <= 3.99
s60 - s31 + 5.993019z60z31z1 <= 3.99
s116 - s75 + 5.989313z116z75z3 <= 4.85
s40 - s93 + 6.473333z40z93z1 <= 5.46
s40 - s93 + 6.473333z40z93z2 <= 5.46
s40 - s155 + 6.742921z40z155z1 <= 5.46
s40 - s155 + 6.742921z40z155z2 <= 5.46
s40 - s47 + 6.602673z40z47z2 <= 5.46
s40 - s126 + 6.541103z40z126z2 <= 5.46
s40 - s117 + 6.620277z40z117z1 <= 5.46
s40 - s117 + 6.620277z40z117z2 <= 5.46
s40 - s143 + 6.715517z40z143z1 <= 5.46
s40 - s74 + 6.481082z40z74z1 <= 5.46
s40 - s164 + 6.612023z40z164z2 <= 5.46
s40 - s44 + 6.691421z40z44z1 <= 5.46
s40 - s44 + 6.691421z40z44z2 <= 5.46
s40 - s172 + 6.677051z40z172z2 <= 5.46
s40 - s41 + 6.720768z40z41z2 <= 5.46
s40 - s191 + 6.625597z40z191z2 <= 5.46
s40 - s14 + 6.700092z40z14z1 <= 5.46
s40 - s14 + 6.700092z40z14z2 <= 5.46
s40 - s139 + 6.615492z40z139z2 <= 5.46
s40 - s3 + 6.576428z40z3z1 <= 5.46
s40 - s75 + 6.663525z40z75z2 <= 5.46
s40 - s161 + 6.801305z40z161z1 <= 5.46
s40 - s89 + 6.650904z40z89z2 <= 5.46
s40 - s4 + 6.694473z40z4z1 <= 5.46
s40 - s4 + 6.694473z40z4z2 <= 5.46
s40 - s57 + 6.717250z40z57z2 <= 5.46
s40 - s183 + 6.729073z40z183z1 <= 5.46
s40 - s111 + 6.718886z40z111z2 <= 5.46
s40 - s122 + 6.660000z40z122z1 <= 5.46
s40 - s136 + 6.684004z40z136z1 <= 5.46
s40 - s31 + 6.736245z40z31z1 <= 5.46
s166 - s172 + 6.755221z166z172z3 <= 5.46
s166 - s41 + 6.757620z166z41z3 <= 5.46
s166 - s191 + 6.952161z166z191z3 <= 5.46
s166 - s21 + 6.776087z166z21z3 <= 5.46
s166 - s139 + 6.971077z166z139z3 <= 5.46
s166 - s13 + 6.800523z166z13z3 <= 5.46
s166 - s111 + 6.930697z166z111z3 <= 5.46
s166 - s136 + 6.928188z166z136z3 <= 5.46
s166 - s27 + 6.950351z166z27z3 <= 5.46
s97 - s155 + 6.646005z97z155z1 <= 5.47
s97 - s143 + 6.721308z97z143z1 <= 5.47
s97 - s44 + 6.747529z97z44z1 <= 5.47
s97 - s14 + 6.792559z97z14z1 <= 5.47
s97 - s161 + 6.843392z97z161z1 <= 5.47
s97 - s136 + 6.931928z97z136z1 <= 5.47
s207 - s47 + 6.803617z207z47z2 <= 5.49
s207 - s117 + 6.803617z207z117z2 <= 5.49
s207 - s139 + 6.997762z207z139z2 <= 5.49
s207 - s139 + 6.997762z207z139z3 <= 5.49
s207 - s75 + 6.743421z207z75z2 <= 5.49
s207 - s75 + 6.743421z207z75z3 <= 5.49
s207 - s188 + 6.992085z207z188z3 <= 5.49
s207 - s89 + 6.964646z207z89z2 <= 5.49
s207 - s89 + 6.964646z207z89z3 <= 5.49
s207 - s4 + 6.992880z207z4z2 <= 5.49
s207 - s24 + 6.740510z207z24z3 <= 5.49
s207 - s31 + 6.987817z207z31z3 <= 5.49
s93 - s155 + 6.790669z93z155z1 <= 5.50
s93 - s155 + 6.790669z93z155z2 <= 5.50
s93 - s47 + 6.634990z93z47z2 <= 5.50
s93 - s126 + 6.580000z93z126z2 <= 5.50
s93 - s117 + 6.651144z93z117z1 <= 5.50
s93 - s117 + 6.651144z93z117z2 <= 5.50
s93 - s143 + 6.759315z93z143z1 <= 5.50
s93 - s164 + 6.644222z93z164z2 <= 5.50
s93 - s44 + 6.734473z93z44z1 <= 5.50
s93 - s44 + 6.734473z93z44z2 <= 5.50
s93 - s172 + 6.719899z93z172z2 <= 5.50
s93 - s41 + 6.762128z93z41z2 <= 5.50
s93 - s191 + 6.655635z93z191z2 <= 5.50
s93 - s14 + 6.740092z93z14z1 <= 5.50
s93 - s14 + 6.740092z93z14z2 <= 5.50
s93 - s139 + 6.644222z93z139z2 <= 5.50
s93 - s3 + 6.604350z93z3z1 <= 5.50
s93 - s75 + 6.696864z93z75z2 <= 5.50
s93 - s161 + 6.838690z93z161z1 <= 5.50
s93 - s89 + 6.677889z93z89z2 <= 5.50
s93 - s4 + 6.721610z93z4z1 <= 5.50
s93 - s4 + 6.721610z93z4z2 <= 5.50
s93 - s57 + 6.750599z93z57z2 <= 5.50
s93 - s183 + 6.760342z93z183z1 <= 5.50
s93 - s111 + 6.751573z93z111z2 <= 5.50
s93 - s122 + 6.686666z93z122z1 <= 5.50
s93 - s136 + 6.716333z93z136z1 <= 5.50
s93 - s31 + 6.763059z93z31z1 <= 5.50
s190 - s126 + 6.593333z190z126z3 <= 5.50
s190 - s81 + 6.629443z190z81z3 <= 5.50
s190 - s172 + 6.732857z190z172z3 <= 5.50
s190 - s41 + 6.775358z190z41z3 <= 5.50
s190 - s104 + 6.575425z190z104z3 <= 5.50
s190 - s191 + 6.665059z190z191z3 <= 5.50
s190 - s21 + 6.710502z190z21z3 <= 5.50
s190 - s139 + 6.652023z190z139z3 <= 5.50
s190 - s75 + 6.685233z190z75z3 <= 5.50
s190 - s179 + 6.629443z190z179z3 <= 5.50
s190 - s13 + 6.720101z190z13z3 <= 5.50
s190 - s188 + 6.696977z190z188z3 <= 5.50
s190 - s89 + 6.681353z190z89z3 <= 5.50
s190 - s111 + 6.762975z190z111z3 <= 5.50
s190 - s24 + 6.768742z190z24z3 <= 5.50
s190 - s136 + 6.727547z190z136z3 <= 5.50
s190 - s27 + 6.837376z190z27z3 <= 5.50
s190 - s31 + 6.765414z190z31z3 <= 5.50
s186 - s155 + 6.734164z186z155z1 <= 5.60
s186 - s155 + 6.734164z186z155z2 <= 5.60
s186 - s47 + 6.893636z186z47z2 <= 5.60
s186 - s117 + 6.911270z186z117z1 <= 5.60
s186 - s117 + 6.911270z186z117z2 <= 5.60
s186 - s143 + 6.737437z186z143z1 <= 5.60
s186 - s164 + 6.793448z186z164z2 <= 5.60
s186 - s44 + 6.725255z186z44z1 <= 5.60
s186 - s44 + 6.725255z186z44z2 <= 5.60
s186 - s172 + 6.716619z186z172z2 <= 5.60
s186 - s41 + 6.767066z186z41z2 <= 5.60
s186 - s191 + 6.826765z186z191z2 <= 5.60
s186 - s14 + 6.765596z186z14z1 <= 5.60
s186 - s14 + 6.765596z186z14z2 <= 5.60
s186 - s139 + 6.835702z186z139z2 <= 5.60
s186 - s3 + 6.817153z186z3z1 <= 5.60
s186 - s75 + 6.953396z186z75z2 <= 5.60
s186 - s161 + 6.880079z186z161z1 <= 5.60
s186 - s89 + 6.895898z186z89z2 <= 5.60
s186 - s4 + 6.930992z186z4z1 <= 5.60
s186 - s4 + 6.930992z186z4z2 <= 5.60
s186 - s57 + 6.856558z186z57z2 <= 5.60
s186 - s111 + 6.866166z186z111z2 <= 5.60
s186 - s122 + 6.920693z186z122z1 <= 5.60
s186 - s136 + 6.842670z186z136z1 <= 5.60
s186 - s31 + 6.980467z186z31z1 <= 5.60
s155 - s143 + 6.944281z155z143z1 <= 5.85
s155 - s41 + 6.992517z155z41z2 <= 5.85

x60x97x1 - 2z60z97z1 <= 0
x60x155x1 - 1z60z155z1 <= 0
x60x117x1 - 1z60z117z1 <= 0
x60x143x1 - 2z60z143z1 <= 0
x60x44x1 - 1z60z44z1 <= 0
x60x14x1 - 1z60z14z1 <= 0
x60x3x1 - 2z60z3z1 <= 0
x60x161x1 - 2z60z161z1 <= 0
x60x4x1 - 1z60z4z1 <= 0
x60x183x1 - 2z60z183z1 <= 0
x60x122x1 - 2z60z122z1 <= 0
x60x136x1 - 1z60z136z1 <= 0
x60x31x1 - 1z60z31z1 <= 0
x116x75x3 - 1z116z75z3 <= 0
x40x93x1 - 1z40z93z1 <= 0
x40x93x2 - 1z40z93z2 <= 0
x40x155x1 - 1z40z155z1 <= 0
x40x155x2 - 1z40z155z2 <= 0
x40x47x2 - 2z40z47z2 <= 0
x40x126x2 - 1z40z126z2 <= 0
x40x117x1 - 1z40z117z1 <= 0
x40x117x2 - 1z40z117z2 <= 0
x40x143x1 - 2z40z143z1 <= 0
x40x74x1 - 1z40z74z1 <= 0
x40x164x2 - 2z40z164z2 <= 0
x40x44x1 - 1z40z44z1 <= 0
x40x44x2 - 1z40z44z2 <= 0
x40x172x2 - 1z40z172z2 <= 0
x40x41x2 - 1z40z41z2 <= 0
x40x191x2 - 1z40z191z2 <= 0
x40x14x1 - 1z40z14z1 <= 0
x40x14x2 - 1z40z14z2 <= 0
x40x139x2 - 1z40z139z2 <= 0
x40x3x1 - 2z40z3z1 <= 0
x40x75x2 - 1z40z75z2 <= 0
x40x161x1 - 2z40z161z1 <= 0
x40x89x2 - 1z40z89z2 <= 0
x40x4x1 - 1z40z4z1 <= 0
x40x4x2 - 1z40z4z2 <= 0
x40x57x2 - 2z40z57z2 <= 0
x40x183x1 - 2z40z183z1 <= 0
x40x111x2 - 1z40z111z2 <= 0
x40x122x1 - 2z40z122z1 <= 0
x40x136x1 - 1z40z136z1 <= 0
x40x31x1 - 1z40z31z1 <= 0
x40x0x1 <= 1
x40x0x2 <= 1
x166x172x3 - 1z166z172z3 <= 0
x166x41x3 - 1z166z41z3 <= 0
x166x191x3 - 1z166z191z3 <= 0
x166x21x3 - 2z166z21z3 <= 0
x166x139x3 - 1z166z139z3 <= 0
x166x13x3 - 2z166z13z3 <= 0
x166x111x3 - 1z166z111z3 <= 0
x166x136x3 - 1z166z136z3 <= 0
x166x27x3 - 2z166z27z3 <= 0
x166x0x3 <= 2
x97x155x1 - 1z97z155z1 <= 0
x97x143x1 - 2z97z143z1 <= 0
x97x44x1 - 1z97z44z1 <= 0
x97x14x1 - 1z97z14z1 <= 0
x97x161x1 - 2z97z161z1 <= 0
x97x136x1 - 1z97z136z1 <= 0
x97x0x1 <= 2
x207x47x2 - 2z207z47z2 <= 0
x207x117x2 - 1z207z117z2 <= 0
x207x139x2 - 1z207z139z2 <= 0
x207x139x3 - 1z207z139z3 <= 0
x207x75x2 - 1z207z75z2 <= 0
x207x75x3 - 1z207z75z3 <= 0
x207x188x3 - 2z207z188z3 <= 0
x207x89x2 - 1z207z89z2 <= 0
x207x89x3 - 1z207z89z3 <= 0
x207x4x2 - 1z207z4z2 <= 0
x207x24x3 - 2z207z24z3 <= 0
x207x31x3 - 1z207z31z3 <= 0
x207x0x2 <= 1
x207x0x3 <= 1
x93x155x1 - 1z93z155z1 <= 0
x93x155x2 - 1z93z155z2 <= 0
x93x47x2 - 2z93z47z2 <= 0
x93x126x2 - 1z93z126z2 <= 0
x93x117x1 - 1z93z117z1 <= 0
x93x117x2 - 1z93z117z2 <= 0
x93x143x1 - 2z93z143z1 <= 0
x93x164x2 - 2z93z164z2 <= 0
x93x44x1 - 1z93z44z1 <= 0
x93x44x2 - 1z93z44z2 <= 0
x93x172x2 - 1z93z172z2 <= 0
x93x41x2 - 1z93z41z2 <= 0
x93x191x2 - 1z93z191z2 <= 0
x93x14x1 - 1z93z14z1 <= 0
x93x14x2 - 1z93z14z2 <= 0
x93x139x2 - 1z93z139z2 <= 0
x93x3x1 - 2z93z3z1 <= 0
x93x75x2 - 1z93z75z2 <= 0
x93x161x1 - 2z93z161z1 <= 0
x93x89x2 - 1z93z89z2 <= 0
x93x4x1 - 1z93z4z1 <= 0
x93x4x2 - 1z93z4z2 <= 0
x93x57x2 - 2z93z57z2 <= 0
x93x183x1 - 2z93z183z1 <= 0
x93x111x2 - 1z93z111z2 <= 0
x93x122x1 - 2z93z122z1 <= 0
x93x136x1 - 1z93z136z1 <= 0
x93x31x1 - 1z93z31z1 <= 0
x93x0x1 <= 1
x93x0x2 <= 1
x190x126x3 - 1z190z126z3 <= 0
x190x81x3 - 2z190z81z3 <= 0
x190x172x3 - 1z190z172z3 <= 0
x190x41x3 - 1z190z41z3 <= 0
x190x104x3 - 2z190z104z3 <= 0
x190x191x3 - 1z190z191z3 <= 0
x190x21x3 - 2z190z21z3 <= 0
x190x139x3 - 1z190z139z3 <= 0
x190x75x3 - 1z190z75z3 <= 0
x190x179x3 - 2z190z179z3 <= 0
x190x13x3 - 2z190z13z3 <= 0
x190x188x3 - 2z190z188z3 <= 0
x190x89x3 - 1z190z89z3 <= 0
x190x111x3 - 1z190z111z3 <= 0
x190x24x3 - 2z190z24z3 <= 0
x190x136x3 - 1z190z136z3 <= 0
x190x27x3 - 2z190z27z3 <= 0
x190x31x3 - 1z190z31z3 <= 0
x190x0x3 <= 2
x186x155x1 - 1z186z155z1 <= 0
x186x155x2 - 1z186z155z2 <= 0
x186x47x2 - 2z186z47z2 <= 0
x186x117x1 - 1z186z117z1 <= 0
x186x117x2 - 1z186z117z2 <= 0
x186x143x1 - 2z186z143z1 <= 0
x186x164x2 - 2z186z164z2 <= 0
x186x44x1 - 1z186z44z1 <= 0
x186x44x2 - 1z186z44z2 <= 0
x186x172x2 - 1z186z172z2 <= 0
x186x41x2 - 1z186z41z2 <= 0
x186x191x2 - 1z186z191z2 <= 0
x186x14x1 - 1z186z14z1 <= 0
x186x14x2 - 1z186z14z2 <= 0
x186x139x2 - 1z186z139z2 <= 0
x186x3x1 - 2z186z3z1 <= 0
x186x75x2 - 1z186z75z2 <= 0
x186x161x1 - 2z186z161z1 <= 0
x186x89x2 - 1z186z89z2 <= 0
x186x4x1 - 1z186z4z1 <= 0
x186x4x2 - 1z186z4z2 <= 0
x186x57x2 - 2z186z57z2 <= 0
x186x111x2 - 1z186z111z2 <= 0
x186x122x1 - 2z186z122z1 <= 0
x186x136x1 - 1z186z136z1 <= 0
x186x31x1 - 1z186z31z1 <= 0
x186x0x1 <= 1
x186x0x2 <= 1
x155x143x1 - 2z155z143z1 <= 0
x155x41x2 - 1z155z41z2 <= 0
x155x0x1 <= 1
x155x0x2 <= 1
x47x0x2 <= 2
x126x0x2 <= 1
x126x0x3 <= 1
x78x0x3 <= 2
x117x0x1 <= 1
x117x0x2 <= 1
x100x0x2 <= 1
x100x0x3 <= 1
x143x0x1 <= 2
x74x0x1 <= 1
x74x0x3 <= 1
x164x0x2 <= 2
x44x0x1 <= 1
x44x0x2 <= 1
x81x0x3 <= 2
x172x0x2 <= 1
x172x0x3 <= 1
x41x0x2 <= 1
x41x0x3 <= 1
x104x0x3 <= 2
x191x0x2 <= 1
x191x0x3 <= 1
x21x0x3 <= 2
x14x0x1 <= 1
x14x0x2 <= 1
x139x0x2 <= 1
x139x0x3 <= 1
x3x0x1 <= 2
x75x0x2 <= 1
x75x0x3 <= 1
x179x0x3 <= 2
x13x0x3 <= 2
x188x0x3 <= 2
x161x0x1 <= 2
x89x0x2 <= 1
x89x0x3 <= 1
x4x0x1 <= 1
x4x0x2 <= 1
x57x0x2 <= 2
x183x0x1 <= 2
x111x0x2 <= 1
x111x0x3 <= 1
x122x0x1 <= 2
x24x0x3 <= 2
x136x0x1 <= 1
x136x0x3 <= 1
x27x0x3 <= 2
x31x0x1 <= 1
x31x0x3 <= 1

s97 + 5.47z60z97z1 <= 11.47
s93 + 5.50z40z93z1 <= 11.50
s93 + 5.50z40z93z2 <= 11.50
s155 + 5.85z60z155z1 <= 11.85
s155 + 5.85z40z155z1 <= 11.85
s155 + 5.85z40z155z2 <= 11.85
s155 + 5.85z97z155z1 <= 11.85
s155 + 5.85z93z155z1 <= 11.85
s155 + 5.85z93z155z2 <= 11.85
s155 + 5.85z186z155z1 <= 11.85
s155 + 5.85z186z155z2 <= 11.85
s47 + 6.00z40z47z2 <= 12.00
s47 + 6.00z207z47z2 <= 12.00
s47 + 6.00z93z47z2 <= 12.00
s47 + 6.00z186z47z2 <= 12.00
s126 + 5.64z40z126z2 <= 11.64
s126 + 5.64z93z126z2 <= 11.64
s126 + 5.64z190z126z3 <= 11.64
s117 + 6.00z60z117z1 <= 12.00
s117 + 6.00z40z117z1 <= 12.00
s117 + 6.00z40z117z2 <= 12.00
s117 + 6.00z207z117z2 <= 12.00
s117 + 6.00z93z117z1 <= 12.00
s117 + 6.00z93z117z2 <= 12.00
s117 + 6.00z186z117z1 <= 12.00
s117 + 6.00z186z117z2 <= 12.00
s143 + 6.00z60z143z1 <= 12.00
s143 + 6.00z40z143z1 <= 12.00
s143 + 6.00z97z143z1 <= 12.00
s143 + 6.00z93z143z1 <= 12.00
s143 + 6.00z186z143z1 <= 12.00
s143 + 6.00z155z143z1 <= 12.00
s74 + 5.49z40z74z1 <= 11.49
s164 + 6.00z40z164z2 <= 12.00
s164 + 6.00z93z164z2 <= 12.00
s164 + 6.00z186z164z2 <= 12.00
s44 + 5.94z60z44z1 <= 11.94
s44 + 5.94z40z44z1 <= 11.94
s44 + 5.94z40z44z2 <= 11.94
s44 + 5.94z97z44z1 <= 11.94
s44 + 5.94z93z44z1 <= 11.94
s44 + 5.94z93z44z2 <= 11.94
s44 + 5.94z186z44z1 <= 11.94
s44 + 5.94z186z44z2 <= 11.94
s81 + 5.92z190z81z3 <= 11.92
s172 + 5.91z40z172z2 <= 11.91
s172 + 5.91z166z172z3 <= 11.91
s172 + 5.91z93z172z2 <= 11.91
s172 + 5.91z190z172z3 <= 11.91
s172 + 5.91z186z172z2 <= 11.91
s41 + 6.00z40z41z2 <= 12.00
s41 + 6.00z166z41z3 <= 12.00
s41 + 6.00z93z41z2 <= 12.00
s41 + 6.00z190z41z3 <= 12.00
s41 + 6.00z186z41z2 <= 12.00
s41 + 6.00z155z41z2 <= 12.00
s104 + 5.71z190z104z3 <= 11.71
s191 + 6.00z40z191z2 <= 12.00
s191 + 6.00z166z191z3 <= 12.00
s191 + 6.00z93z191z2 <= 12.00
s191 + 6.00z190z191z3 <= 12.00
s191 + 6.00z186z191z2 <= 12.00
s21 + 5.90z166z21z3 <= 11.90
s21 + 5.90z190z21z3 <= 11.90
s14 + 6.00z60z14z1 <= 12.00
s14 + 6.00z40z14z1 <= 12.00
s14 + 6.00z40z14z2 <= 12.00
s14 + 6.00z97z14z1 <= 12.00
s14 + 6.00z93z14z1 <= 12.00
s14 + 6.00z93z14z2 <= 12.00
s14 + 6.00z186z14z1 <= 12.00
s14 + 6.00z186z14z2 <= 12.00
s139 + 6.00z40z139z2 <= 12.00
s139 + 6.00z166z139z3 <= 12.00
s139 + 6.00z207z139z2 <= 12.00
s139 + 6.00z207z139z3 <= 12.00
s139 + 6.00z93z139z2 <= 12.00
s139 + 6.00z190z139z3 <= 12.00
s139 + 6.00z186z139z2 <= 12.00
s3 + 5.85z60z3z1 <= 11.85
s3 + 5.85z40z3z1 <= 11.85
s3 + 5.85z93z3z1 <= 11.85
s3 + 5.85z186z3z1 <= 11.85
s75 + 6.00z116z75z3 <= 12.00
s75 + 6.00z40z75z2 <= 12.00
s75 + 6.00z207z75z2 <= 12.00
s75 + 6.00z207z75z3 <= 12.00
s75 + 6.00z93z75z2 <= 12.00
s75 + 6.00z190z75z3 <= 12.00
s75 + 6.00z186z75z2 <= 12.00
s179 + 5.92z190z179z3 <= 11.92
s13 + 6.00z166z13z3 <= 12.00
s13 + 6.00z190z13z3 <= 12.00
s188 + 6.00z207z188z3 <= 12.00
s188 + 6.00z190z188z3 <= 12.00
s161 + 6.00z60z161z1 <= 12.00
s161 + 6.00z40z161z1 <= 12.00
s161 + 6.00z97z161z1 <= 12.00
s161 + 6.00z93z161z1 <= 12.00
s161 + 6.00z186z161z1 <= 12.00
s89 + 6.00z40z89z2 <= 12.00
s89 + 6.00z207z89z2 <= 12.00
s89 + 6.00z207z89z3 <= 12.00
s89 + 6.00z93z89z2 <= 12.00
s89 + 6.00z190z89z3 <= 12.00
s89 + 6.00z186z89z2 <= 12.00
s4 + 6.00z60z4z1 <= 12.00
s4 + 6.00z40z4z1 <= 12.00
s4 + 6.00z40z4z2 <= 12.00
s4 + 6.00z207z4z2 <= 12.00
s4 + 6.00z93z4z1 <= 12.00
s4 + 6.00z93z4z2 <= 12.00
s4 + 6.00z186z4z1 <= 12.00
s4 + 6.00z186z4z2 <= 12.00
s57 + 6.00z40z57z2 <= 12.00
s57 + 6.00z93z57z2 <= 12.00
s57 + 6.00z186z57z2 <= 12.00
s183 + 6.00z60z183z1 <= 12.00
s183 + 6.00z40z183z1 <= 12.00
s183 + 6.00z93z183z1 <= 12.00
s111 + 6.00z40z111z2 <= 12.00
s111 + 6.00z166z111z3 <= 12.00
s111 + 6.00z93z111z2 <= 12.00
s111 + 6.00z190z111z3 <= 12.00
s111 + 6.00z186z111z2 <= 12.00
s122 + 6.00z60z122z1 <= 12.00
s122 + 6.00z40z122z1 <= 12.00
s122 + 6.00z93z122z1 <= 12.00
s122 + 6.00z186z122z1 <= 12.00
s24 + 6.00z207z24z3 <= 12.00
s24 + 6.00z190z24z3 <= 12.00
s136 + 6.00z60z136z1 <= 12.00
s136 + 6.00z40z136z1 <= 12.00
s136 + 6.00z166z136z3 <= 12.00
s136 + 6.00z97z136z1 <= 12.00
s136 + 6.00z93z136z1 <= 12.00
s136 + 6.00z190z136z3 <= 12.00
s136 + 6.00z186z136z1 <= 12.00
s27 + 6.00z166z27z3 <= 12.00
s27 + 6.00z190z27z3 <= 12.00
s31 + 6.00z60z31z1 <= 12.00
s31 + 6.00z40z31z1 <= 12.00
s31 + 6.00z207z31z3 <= 12.00
s31 + 6.00z93z31z1 <= 12.00
s31 + 6.00z190z31z3 <= 12.00
s31 + 6.00z186z31z1 <= 12.00

Bounds
s60 = 3.994509
s148 = 4.687337
s2 = 4.847686
s109 = 4.864270
s66 = 5.009471
s152 = 5.043279
s202 = 4.883388
s48 = 5.039957
s150 = 5.150460
s116 = 4.851876
s61 = 5.233074
s208 = 4.980154
4.460000 <= s40 <= 5.460000
4.460000 <= s166 <= 5.460000
4.470000 <= s97 <= 5.470000
4.490000 <= s207 <= 5.490000
4.500000 <= s93 <= 5.500000
4.500000 <= s190 <= 5.500000
4.600000 <= s186 <= 5.600000
4.850000 <= s155 <= 5.850000
5.000000 <= s47 <= 6.000000
5.010000 <= s126 <= 5.640000
5.020000 <= s78 <= 5.460000
5.090000 <= s117 <= 6.000000
5.110000 <= s100 <= 5.480000
5.140000 <= s143 <= 6.000000
5.190000 <= s74 <= 5.490000
5.220000 <= s164 <= 6.000000
5.230000 <= s44 <= 5.940000
5.230000 <= s81 <= 5.920000
5.270000 <= s172 <= 5.910000
5.280000 <= s41 <= 6.000000
5.300000 <= s104 <= 5.710000
5.340000 <= s191 <= 6.000000
5.360000 <= s21 <= 5.900000
5.380000 <= s14 <= 6.000000
5.400000 <= s139 <= 6.000000
5.410000 <= s3 <= 5.850000
5.410000 <= s75 <= 6.000000
5.410000 <= s179 <= 5.920000
5.440000 <= s13 <= 6.000000
5.630000 <= s188 <= 6.000000
5.670000 <= s161 <= 6.000000
5.680000 <= s89 <= 6.000000
5.750000 <= s4 <= 6.000000
5.820000 <= s57 <= 6.000000
5.820000 <= s183 <= 6.000000
5.880000 <= s111 <= 6.000000
5.890000 <= s122 <= 6.000000
5.900000 <= s24 <= 6.000000
5.920000 <= s136 <= 6.000000
5.940000 <= s27 <= 6.000000
5.960000 <= s31 <= 6.000000

General
x60x97x1 x60x155x1 x60x117x1 x60x143x1 x60x44x1 x60x14x1 x60x3x1 x60x161x1 x60x4x1 x60x183x1 x60x122x1 x60x136x1 x60x31x1 








x116x75x3 


x40x93x1 x40x93x2 x40x155x1 x40x155x2 x40x47x2 x40x126x2 x40x117x1 x40x117x2 x40x143x1 x40x74x1 x40x164x2 x40x44x1 x40x44x2 x40x172x2 x40x41x2 x40x191x2 x40x14x1 x40x14x2 x40x139x2 x40x3x1 x40x75x2 x40x161x1 x40x89x2 x40x4x1 x40x4x2 x40x57x2 x40x183x1 x40x111x2 x40x122x1 x40x136x1 x40x31x1 x40x0x1 x40x0x2 
x166x172x3 x166x41x3 x166x191x3 x166x21x3 x166x139x3 x166x13x3 x166x111x3 x166x136x3 x166x27x3 x166x0x3 
x97x155x1 x97x143x1 x97x44x1 x97x14x1 x97x161x1 x97x136x1 x97x0x1 
x207x47x2 x207x117x2 x207x139x2 x207x139x3 x207x75x2 x207x75x3 x207x188x3 x207x89x2 x207x89x3 x207x4x2 x207x24x3 x207x31x3 x207x0x2 x207x0x3 
x93x155x1 x93x155x2 x93x47x2 x93x126x2 x93x117x1 x93x117x2 x93x143x1 x93x164x2 x93x44x1 x93x44x2 x93x172x2 x93x41x2 x93x191x2 x93x14x1 x93x14x2 x93x139x2 x93x3x1 x93x75x2 x93x161x1 x93x89x2 x93x4x1 x93x4x2 x93x57x2 x93x183x1 x93x111x2 x93x122x1 x93x136x1 x93x31x1 x93x0x1 x93x0x2 
x190x126x3 x190x81x3 x190x172x3 x190x41x3 x190x104x3 x190x191x3 x190x21x3 x190x139x3 x190x75x3 x190x179x3 x190x13x3 x190x188x3 x190x89x3 x190x111x3 x190x24x3 x190x136x3 x190x27x3 x190x31x3 x190x0x3 
x186x155x1 x186x155x2 x186x47x2 x186x117x1 x186x117x2 x186x143x1 x186x164x2 x186x44x1 x186x44x2 x186x172x2 x186x41x2 x186x191x2 x186x14x1 x186x14x2 x186x139x2 x186x3x1 x186x75x2 x186x161x1 x186x89x2 x186x4x1 x186x4x2 x186x57x2 x186x111x2 x186x122x1 x186x136x1 x186x31x1 x186x0x1 x186x0x2 
x155x143x1 x155x41x2 x155x0x1 x155x0x2 
x47x0x2 
x126x0x2 x126x0x3 
x78x0x3 
x117x0x1 x117x0x2 
x100x0x2 x100x0x3 
x143x0x1 
x74x0x1 x74x0x3 
x164x0x2 
x44x0x1 x44x0x2 
x81x0x3 
x172x0x2 x172x0x3 
x41x0x2 x41x0x3 
x104x0x3 
x191x0x2 x191x0x3 
x21x0x3 
x14x0x1 x14x0x2 
x139x0x2 x139x0x3 
x3x0x1 
x75x0x2 x75x0x3 
x179x0x3 
x13x0x3 
x188x0x3 
x161x0x1 
x89x0x2 x89x0x3 
x4x0x1 x4x0x2 
x57x0x2 
x183x0x1 
x111x0x2 x111x0x3 
x122x0x1 
x24x0x3 
x136x0x1 x136x0x3 
x27x0x3 
x31x0x1 x31x0x3 

Binaries
y40 y166 y97 y207 y93 y190 y186 y155 y47 y126 y78 y117 y100 y143 y74 y164 y44 y81 y172 y41 y104 y191 y21 y14 y139 y3 y75 y179 y13 y188 y161 y89 y4 y57 y183 y111 y122 y24 y136 y27 y31 
z60z97z1 z60z155z1 z60z117z1 z60z143z1 z60z44z1 z60z14z1 z60z3z1 z60z161z1 z60z4z1 z60z183z1 z60z122z1 z60z136z1 z60z31z1 








z116z75z3 


z40z93z1 z40z93z2 z40z155z1 z40z155z2 z40z47z2 z40z126z2 z40z117z1 z40z117z2 z40z143z1 z40z74z1 z40z164z2 z40z44z1 z40z44z2 z40z172z2 z40z41z2 z40z191z2 z40z14z1 z40z14z2 z40z139z2 z40z3z1 z40z75z2 z40z161z1 z40z89z2 z40z4z1 z40z4z2 z40z57z2 z40z183z1 z40z111z2 z40z122z1 z40z136z1 z40z31z1 
z166z172z3 z166z41z3 z166z191z3 z166z21z3 z166z139z3 z166z13z3 z166z111z3 z166z136z3 z166z27z3 
z97z155z1 z97z143z1 z97z44z1 z97z14z1 z97z161z1 z97z136z1 
z207z47z2 z207z117z2 z207z139z2 z207z139z3 z207z75z2 z207z75z3 z207z188z3 z207z89z2 z207z89z3 z207z4z2 z207z24z3 z207z31z3 
z93z155z1 z93z155z2 z93z47z2 z93z126z2 z93z117z1 z93z117z2 z93z143z1 z93z164z2 z93z44z1 z93z44z2 z93z172z2 z93z41z2 z93z191z2 z93z14z1 z93z14z2 z93z139z2 z93z3z1 z93z75z2 z93z161z1 z93z89z2 z93z4z1 z93z4z2 z93z57z2 z93z183z1 z93z111z2 z93z122z1 z93z136z1 z93z31z1 
z190z126z3 z190z81z3 z190z172z3 z190z41z3 z190z104z3 z190z191z3 z190z21z3 z190z139z3 z190z75z3 z190z179z3 z190z13z3 z190z188z3 z190z89z3 z190z111z3 z190z24z3 z190z136z3 z190z27z3 z190z31z3 
z186z155z1 z186z155z2 z186z47z2 z186z117z1 z186z117z2 z186z143z1 z186z164z2 z186z44z1 z186z44z2 z186z172z2 z186z41z2 z186z191z2 z186z14z1 z186z14z2 z186z139z2 z186z3z1 z186z75z2 z186z161z1 z186z89z2 z186z4z1 z186z4z2 z186z57z2 z186z111z2 z186z122z1 z186z136z1 z186z31z1 
z155z143z1 z155z41z2 


































End